jobs  (incl. supersource/sink ):	102
RESOURCES
- renewable                 : 2 R
- nonrenewable              : 2 N
- doubly constrained        : 0 D
************************************************************************
PRECEDENCE RELATIONS:
jobnr.    #modes  #successors   successors
1	1	21		2 3 4 5 6 7 8 9 10 11 13 14 15 17 18 19 21 22 23 26 29 
2	3	9		51 38 34 33 32 30 27 24 12 
3	3	12		58 51 48 46 44 40 39 36 34 30 20 16 
4	3	7		44 35 30 28 27 24 16 
5	3	11		57 51 45 43 41 40 39 37 34 28 24 
6	3	16		58 57 54 50 48 47 46 45 44 43 42 41 40 38 37 34 
7	3	15		60 58 57 54 48 47 45 44 43 41 40 38 37 34 31 
8	3	11		49 46 45 42 40 39 38 37 35 33 28 
9	3	13		65 53 52 51 50 49 48 46 45 36 35 32 27 
10	3	11		60 58 49 48 46 45 42 40 39 28 27 
11	3	8		57 48 44 42 41 39 36 20 
12	3	10		57 49 48 45 44 43 41 37 28 25 
13	3	7		53 50 45 37 35 30 27 
14	3	11		73 72 67 60 57 50 49 48 39 37 33 
15	3	12		73 67 60 56 54 53 50 49 47 43 41 37 
16	3	8		60 57 53 45 42 41 37 31 
17	3	10		101 70 67 66 65 58 57 56 47 36 
18	3	10		72 65 59 56 54 50 48 44 41 40 
19	3	9		70 57 56 55 54 50 48 40 36 
20	3	10		79 73 67 65 63 52 50 49 47 38 
21	3	9		73 67 56 54 53 50 43 41 37 
22	3	13		73 70 69 67 64 61 60 57 56 52 51 47 43 
23	3	12		79 72 66 65 63 59 55 54 53 50 44 40 
24	3	9		101 62 60 56 54 53 48 46 42 
25	3	20		101 100 99 79 73 72 70 69 68 67 66 65 64 63 61 59 58 56 53 52 
26	3	10		100 73 72 70 67 65 62 56 49 41 
27	3	9		101 73 70 67 62 56 54 43 41 
28	3	16		101 99 79 73 71 70 68 67 66 64 61 56 54 53 52 50 
29	3	13		73 72 71 70 69 67 64 62 57 56 55 54 43 
30	3	7		73 70 67 57 49 47 41 
31	3	16		101 100 99 98 79 78 73 71 68 67 66 64 63 56 55 50 
32	3	16		101 99 96 79 78 73 71 68 67 66 64 63 62 61 56 54 
33	3	8		71 69 65 64 55 54 52 43 
34	3	11		79 76 73 69 68 67 66 63 56 53 49 
35	3	10		100 79 73 67 66 64 60 57 56 47 
36	3	8		76 73 71 69 64 61 60 43 
37	3	12		100 95 79 71 70 69 66 65 64 63 59 52 
38	3	14		100 99 95 77 76 72 70 69 68 66 64 62 59 53 
39	3	8		99 71 70 64 61 59 56 54 
40	3	14		101 100 99 96 91 78 77 76 73 69 67 64 62 61 
41	3	12		99 96 79 78 77 76 69 68 66 64 61 55 
42	3	10		79 77 76 73 72 69 68 65 61 59 
43	3	12		100 99 98 95 92 91 79 77 75 68 63 59 
44	3	10		96 77 76 71 70 69 68 64 62 61 
45	3	14		100 99 98 97 96 95 93 91 79 75 71 68 66 64 
46	3	14		99 96 95 93 91 78 76 75 71 69 68 67 66 64 
47	3	8		99 98 96 76 72 71 62 55 
48	3	13		99 95 94 91 85 78 77 76 75 71 69 66 63 
49	3	13		101 98 97 96 94 93 91 89 88 77 71 64 61 
50	3	8		97 96 95 91 86 76 69 62 
51	3	9		101 100 86 84 81 79 78 76 62 
52	3	7		92 91 84 81 77 76 62 
53	3	16		98 97 94 92 91 89 88 87 86 85 84 82 81 78 75 74 
54	3	15		100 98 97 92 91 90 88 86 85 84 83 82 81 76 75 
55	3	15		97 95 94 93 91 90 89 88 87 85 84 83 82 81 75 
56	3	13		95 92 91 89 88 87 85 84 82 81 77 75 74 
57	3	13		98 95 92 91 90 88 85 84 82 81 76 75 74 
58	3	11		97 96 94 91 90 84 82 80 76 74 71 
59	3	12		97 96 94 93 89 88 86 85 84 81 78 74 
60	3	10		98 96 94 91 87 82 81 77 75 74 
61	3	10		95 92 90 87 85 84 82 81 80 74 
62	3	8		94 93 89 88 85 82 75 74 
63	3	9		93 90 89 87 86 84 82 81 80 
64	3	8		92 90 85 84 82 81 80 74 
65	3	8		93 91 89 88 87 83 82 81 
66	3	7		89 88 84 82 81 80 74 
67	3	5		90 86 82 81 80 
68	3	4		86 85 82 74 
69	3	4		90 84 81 80 
70	3	3		98 85 75 
71	3	3		92 86 81 
72	3	3		86 82 81 
73	3	2		85 75 
74	3	1		83 
75	3	1		80 
76	3	1		87 
77	3	1		86 
78	3	1		80 
79	3	1		87 
80	3	1		102 
81	3	1		102 
82	3	1		102 
83	3	1		102 
84	3	1		102 
85	3	1		102 
86	3	1		102 
87	3	1		102 
88	3	1		102 
89	3	1		102 
90	3	1		102 
91	3	1		102 
92	3	1		102 
93	3	1		102 
94	3	1		102 
95	3	1		102 
96	3	1		102 
97	3	1		102 
98	3	1		102 
99	3	1		102 
100	3	1		102 
101	3	1		102 
102	1	0		
************************************************************************
REQUESTS/DURATIONS
jobnr.	mode	dur	R1	R2	N1	N2	
------------------------------------------------------------------------
1	1	0	0	0	0	0	
2	1	5	3	0	1	0	
	2	6	1	0	1	0	
	3	9	1	0	0	8	
3	1	1	5	0	0	5	
	2	2	3	0	0	3	
	3	6	0	1	0	3	
4	1	1	0	2	8	0	
	2	8	2	0	7	0	
	3	8	0	2	7	0	
5	1	2	4	0	0	9	
	2	7	0	1	0	8	
	3	7	0	1	3	0	
6	1	2	4	0	0	7	
	2	4	2	0	0	5	
	3	8	0	1	0	3	
7	1	5	0	1	0	7	
	2	5	0	1	5	0	
	3	6	0	1	2	0	
8	1	2	2	0	7	0	
	2	4	1	0	7	0	
	3	7	0	2	0	6	
9	1	1	0	2	0	7	
	2	1	4	0	0	3	
	3	2	3	0	0	1	
10	1	5	0	2	4	0	
	2	9	0	2	0	5	
	3	10	2	0	3	0	
11	1	1	5	0	0	8	
	2	2	0	2	0	7	
	3	10	3	0	9	0	
12	1	1	0	2	0	3	
	2	4	0	2	8	0	
	3	8	2	0	7	0	
13	1	3	0	5	0	10	
	2	5	0	5	5	0	
	3	7	3	0	0	9	
14	1	4	4	0	5	0	
	2	9	3	0	0	6	
	3	10	0	1	0	2	
15	1	1	4	0	7	0	
	2	5	4	0	6	0	
	3	9	0	2	0	9	
16	1	2	2	0	0	8	
	2	4	2	0	0	7	
	3	9	2	0	0	6	
17	1	4	0	2	7	0	
	2	5	4	0	5	0	
	3	9	0	1	4	0	
18	1	7	0	5	8	0	
	2	7	3	0	0	3	
	3	10	2	0	0	2	
19	1	6	0	1	0	8	
	2	6	2	0	0	8	
	3	7	2	0	3	0	
20	1	1	2	0	0	4	
	2	3	0	4	0	4	
	3	7	0	4	5	0	
21	1	1	0	5	5	0	
	2	3	0	4	0	8	
	3	9	0	2	0	8	
22	1	5	0	5	0	8	
	2	5	0	2	9	0	
	3	9	3	0	0	6	
23	1	2	0	5	5	0	
	2	3	0	4	3	0	
	3	7	2	0	3	0	
24	1	1	0	5	8	0	
	2	6	4	0	4	0	
	3	9	3	0	4	0	
25	1	3	0	4	0	8	
	2	7	0	4	8	0	
	3	9	2	0	0	8	
26	1	3	0	5	0	9	
	2	6	0	3	4	0	
	3	7	0	3	0	7	
27	1	2	3	0	3	0	
	2	6	3	0	2	0	
	3	7	0	2	0	3	
28	1	7	0	4	0	2	
	2	7	4	0	0	1	
	3	10	0	4	0	1	
29	1	5	1	0	9	0	
	2	6	1	0	0	7	
	3	9	1	0	0	5	
30	1	6	0	4	0	5	
	2	10	3	0	0	5	
	3	10	2	0	2	0	
31	1	2	0	5	6	0	
	2	4	0	3	5	0	
	3	6	0	2	0	8	
32	1	4	0	2	0	5	
	2	9	0	1	0	3	
	3	10	1	0	0	1	
33	1	6	0	2	0	4	
	2	6	1	0	5	0	
	3	7	1	0	4	0	
34	1	3	2	0	0	4	
	2	5	1	0	0	4	
	3	8	1	0	0	3	
35	1	1	5	0	0	10	
	2	8	4	0	5	0	
	3	8	3	0	0	10	
36	1	1	0	5	0	7	
	2	3	0	3	4	0	
	3	9	0	2	0	6	
37	1	2	0	3	6	0	
	2	7	0	3	0	4	
	3	10	3	0	3	0	
38	1	5	2	0	0	2	
	2	6	1	0	0	2	
	3	10	0	1	2	0	
39	1	2	0	3	10	0	
	2	3	0	3	9	0	
	3	3	2	0	9	0	
40	1	3	2	0	4	0	
	2	5	0	2	3	0	
	3	10	0	2	2	0	
41	1	2	0	1	8	0	
	2	7	4	0	7	0	
	3	7	0	1	0	4	
42	1	2	2	0	0	8	
	2	3	0	1	5	0	
	3	6	1	0	1	0	
43	1	4	0	3	3	0	
	2	7	0	2	0	5	
	3	8	0	2	2	0	
44	1	1	4	0	6	0	
	2	1	3	0	0	2	
	3	7	3	0	0	1	
45	1	1	0	2	0	8	
	2	3	4	0	0	8	
	3	8	2	0	0	8	
46	1	3	0	3	0	8	
	2	4	0	1	0	7	
	3	7	2	0	3	0	
47	1	2	0	4	0	6	
	2	8	2	0	0	6	
	3	8	0	4	0	3	
48	1	1	0	5	0	10	
	2	3	3	0	5	0	
	3	8	1	0	0	6	
49	1	3	0	1	0	5	
	2	3	1	0	0	4	
	3	6	0	1	0	4	
50	1	5	5	0	5	0	
	2	7	3	0	0	5	
	3	7	0	2	3	0	
51	1	4	0	3	0	5	
	2	5	0	3	0	4	
	3	9	0	3	0	3	
52	1	1	0	4	0	5	
	2	2	4	0	0	4	
	3	7	0	2	0	3	
53	1	4	4	0	0	8	
	2	5	3	0	0	7	
	3	6	2	0	1	0	
54	1	4	5	0	5	0	
	2	9	0	4	3	0	
	3	10	0	4	0	3	
55	1	1	4	0	0	3	
	2	8	3	0	0	3	
	3	9	0	2	5	0	
56	1	2	0	3	0	8	
	2	6	0	2	2	0	
	3	7	0	2	1	0	
57	1	1	3	0	0	4	
	2	2	2	0	0	4	
	3	9	0	4	0	4	
58	1	4	0	5	0	6	
	2	5	0	4	0	6	
	3	6	0	4	0	4	
59	1	4	0	3	1	0	
	2	5	0	2	0	4	
	3	10	2	0	1	0	
60	1	1	3	0	7	0	
	2	8	2	0	0	7	
	3	9	0	3	0	6	
61	1	5	3	0	0	1	
	2	5	3	0	8	0	
	3	10	0	3	0	1	
62	1	1	5	0	8	0	
	2	2	3	0	6	0	
	3	3	0	3	6	0	
63	1	3	0	3	0	3	
	2	5	0	3	6	0	
	3	10	0	3	0	1	
64	1	1	5	0	4	0	
	2	4	4	0	0	7	
	3	5	0	2	0	4	
65	1	2	0	3	0	5	
	2	5	5	0	0	5	
	3	7	0	1	0	5	
66	1	2	5	0	8	0	
	2	9	4	0	6	0	
	3	9	0	3	1	0	
67	1	4	1	0	5	0	
	2	5	0	1	5	0	
	3	9	1	0	0	6	
68	1	5	4	0	0	7	
	2	6	4	0	0	5	
	3	6	0	2	0	5	
69	1	1	5	0	0	8	
	2	3	5	0	0	4	
	3	4	5	0	0	3	
70	1	2	1	0	6	0	
	2	4	1	0	0	7	
	3	8	0	1	0	7	
71	1	5	0	3	4	0	
	2	6	0	3	2	0	
	3	6	0	3	0	3	
72	1	3	0	2	0	10	
	2	3	0	2	3	0	
	3	6	0	2	2	0	
73	1	2	1	0	0	4	
	2	6	0	2	0	4	
	3	7	1	0	0	3	
74	1	5	0	4	0	9	
	2	6	3	0	4	0	
	3	9	3	0	0	6	
75	1	6	0	4	7	0	
	2	7	0	3	0	5	
	3	8	0	3	0	4	
76	1	3	4	0	7	0	
	2	4	0	3	5	0	
	3	7	0	2	0	7	
77	1	1	0	2	9	0	
	2	2	0	1	8	0	
	3	5	0	1	6	0	
78	1	2	4	0	10	0	
	2	5	0	2	0	2	
	3	7	0	1	0	2	
79	1	5	2	0	0	6	
	2	9	2	0	4	0	
	3	10	2	0	3	0	
80	1	5	4	0	0	9	
	2	8	0	2	5	0	
	3	8	0	2	0	8	
81	1	5	0	2	0	5	
	2	7	0	1	0	4	
	3	10	0	1	3	0	
82	1	6	0	2	0	7	
	2	7	0	2	0	6	
	3	8	0	2	0	5	
83	1	2	0	3	2	0	
	2	5	2	0	0	3	
	3	9	2	0	2	0	
84	1	2	5	0	0	5	
	2	5	0	2	0	4	
	3	8	3	0	4	0	
85	1	2	0	5	8	0	
	2	6	0	4	6	0	
	3	7	0	3	5	0	
86	1	4	0	2	0	9	
	2	4	2	0	0	9	
	3	8	0	1	4	0	
87	1	1	0	5	5	0	
	2	6	0	3	0	1	
	3	10	5	0	3	0	
88	1	4	0	1	7	0	
	2	5	0	1	0	7	
	3	6	0	1	0	6	
89	1	8	0	3	0	8	
	2	9	0	2	0	7	
	3	9	3	0	6	0	
90	1	7	1	0	0	4	
	2	9	0	2	0	4	
	3	10	0	2	0	3	
91	1	7	3	0	0	5	
	2	8	0	4	5	0	
	3	10	0	4	4	0	
92	1	2	0	2	10	0	
	2	9	1	0	0	2	
	3	10	0	1	10	0	
93	1	1	5	0	0	10	
	2	7	3	0	0	9	
	3	8	3	0	6	0	
94	1	2	0	5	9	0	
	2	5	5	0	0	9	
	3	9	5	0	0	8	
95	1	2	3	0	8	0	
	2	2	0	4	8	0	
	3	10	0	4	4	0	
96	1	1	2	0	0	8	
	2	9	2	0	6	0	
	3	9	0	2	3	0	
97	1	3	0	4	0	5	
	2	4	3	0	9	0	
	3	10	2	0	8	0	
98	1	2	4	0	7	0	
	2	3	0	2	5	0	
	3	9	0	2	3	0	
99	1	6	0	4	6	0	
	2	8	0	2	5	0	
	3	8	1	0	0	3	
100	1	3	5	0	8	0	
	2	7	0	3	0	8	
	3	10	0	2	7	0	
101	1	2	3	0	1	0	
	2	5	0	2	0	8	
	3	7	2	0	0	6	
102	1	0	0	0	0	0	
************************************************************************

 RESOURCE AVAILABILITIES 
	R 1	R 2	N 1	N 2
	18	16	349	414

************************************************************************
